nApps = 242
nRes = 9
nActs = 480
nNetworks = 6

assignmentToResources = [2,2,1,1,3,1,3,2,1,1,2,2,3,2,1,3,3,2,3,1,1,2,1,3,2,1,1,3,1,1,1,3,3,3,2,2,1,3,1,3,2,1,1,2,1,3,2,2,2,2,3,3,2,3,3,2,2,2,3,3,3,3,2,1,2,3,1,2,1,1,3,3,2,3,3,2,3,2,2,1,3,1,2,1,1,2,1,3,3,1,3,3,2,3,1,3,1,1,3,1,5,5,5,5,5,4,4,4,6,6,6,4,4,4,4,6,6,6,5,4,4,4,4,4,5,5,5,5,5,6,6,5,5,5,4,4,6,6,6,6,6,5,5,6,4,4,4,5,5,5,5,5,4,4,6,4,4,4,4,4,6,6,6,6,6,6,6,6,5,5,5,5,4,4,4,4,6,4,4,4,4,4,4,4,5,5,5,4,6,6,6,6,5,5,5,5,6,6,6,5,6,6,6,6,6,5,5,5,5,5,5,5,6,6,6,6,6,6,6,6,5,4,5,5,5,4,4,5,4,4,4,4,4,4,6,6,6,6,6,6,6,6,5,5,5,4,4,4,6,6,4,4,5,4,4,5,5,5,4,6,6,4,6,6,6,6,6,6,4,5,7,4,9,6,7,4,9,6,8,4,8,6,7,5,9,5,7,6,8,4,8,4,9,6,8,5,7,4,8,6,8,5,7,4,9,4,9,6,8,4,9,9,7,7,9,7,8,8,8,8,8,8,8,9,8,8,7,7,7,7,9,8,9,9,9,7,7,9,9,7,7,8,9,9,7,8,9,8,8,7,8,8,7,9,8,9,9,8,7,7,9,7,7,9,9,7,8,8,9,8,9,7,7,7,8,8,8,8,8,7,9,9,7,8,9,9,9,8,8,9,8,9,9,9,9,9,7,7,9,8,7,8,7,9,7,7,7,7,8,8,9,7,8,7,8,8,9,7,7,7,9,9,9,7,7,7,7,8,7,7,8,9,9,7,7,9,9,8,9,9,9,8,9,9,9,7,7,7,8,8,7,8,8,9,9,9,9,9,8,8,7,9,8,9,9,8,9,9,9,9,8,7,8,8,7,8,8,8,8,8];

processingTimes = [136,56,72,128,120,56,64,152,136,88,120,104,48,64,72,136,144,40,152,128,136,160,168,136,160,56,112,48,136,168,144,72,128,96,136,80,88,112,144,112,120,80,168,136,136,56,56,88,64,136,128,48,160,80,72,120,128,80,128,136,104,104,128,104,136,136,128,104,144,168,136,96,160,96,112,128,136,72,72,136,104,120,40,136,128,112,120,136,120,104,136,120,112,112,104,56,112,80,128,40,3,500,3,500,8,13,2500,3,13,3,3,3,3,1000,3,3,4,4,500,13,4,5,5,8,4,500,500,3,4,4,2000,4,8,500,3,4,4,4,2500,3,2500,4,3,3,3,4,4,500,500,500,500,3,500,5,3,4,3,3,3,4,13,13,4,2000,3,4,4,1000,500,3,3,3,3,3,3,3,2500,3,3,2500,8,4,4,4,4,4,3,3,12,4,4,5,23,500,5,500,5,5,2000,500,2000,4,3,3,3,4,500,4,500,8,4,23,5,8,2500,13,3,3,3,2000,3,4,4,4,500,13,4,8,3,4,4,4,4,4,3,4,4,4,3,3,3,4,3,3,13,4,4,4,3,3,4,4,7,3,3,100,3,3,500,3,3,4,4,4,4,4,3,3,3,4,4,3,3,23,23,4,4,3,3,3,3,4,4,3,3,3,3,5,5,2000,2000,500,500,4,4,4,4,4,4,3,3,4,4,3,3,3,3,3,3,500,500,3,500,3,500,8,13,2500,3,13,3,3,3,3,1000,3,3,4,4,500,13,4,5,5,8,4,500,500,3,4,4,2000,4,8,500,3,4,4,4,2500,3,2500,4,3,3,3,4,4,500,500,500,500,3,500,5,3,4,3,3,3,4,13,13,4,2000,3,4,4,1000,500,3,3,3,3,3,3,3,2500,3,3,2500,8,4,4,4,4,4,3,3,12,4,4,5,23,500,5,500,5,5,2000,500,2000,4,3,3,3,4,500,4,500,8,4,23,5,8,2500,13,3,3,3,2000,3,4,4,4,500,13,4,8,3,4,4,4,4,4,3,4,4,4,3,3,3,4,3,3,13,4,4,4,3,3,4,4,7,3,3,100,3,3,500,3,3,4,4,4,4,4,3,3,3];

periods = [100000,10000,10000,100000,50000,10000,5000,20000,10000,20000,10000,100000,20000,10000,20000,100000,20000,10000,10000,10000,20000,20000,100000,20000,10000,20000,100000,100000,100000,100000,10000,20000,20000,10000,100000,10000,20000,10000,10000,100000,10000,100000,100000,20000,10000,100000,10000,10000,20000,20000,50000,20000,100000,20000,20000,100000,100000,10000,10000,100000,100000,20000,20000,20000,20000,10000,20000,10000,100000,10000,100000,50000,100000,100000,20000,20000,10000,20000,10000,20000,10000,20000,50000,10000,20000,1000,20000,10000,20000,20000,50000,100000,20000,10000,10000,20000,100000,100000,20000,5000,100000,10000,10000,10000,10000,10000,100000,100000,50000,50000,50000,10000,10000,10000,10000,5000,5000,5000,20000,10000,10000,10000,10000,20000,10000,10000,10000,10000,100000,20000,20000,10000,10000,10000,20000,20000,100000,100000,100000,100000,100000,10000,10000,10000,20000,20000,20000,20000,20000,20000,20000,20000,100000,100000,20000,20000,100000,100000,100000,10000,20000,20000,20000,20000,20000,10000,10000,10000,100000,100000,100000,10000,10000,10000,10000,10000,100000,100000,100000,100000,100000,100000,100000,100000,20000,20000,20000,10000,100000,100000,100000,100000,10000,10000,20000,20000,50000,50000,20000,100000,20000,20000,20000,20000,20000,100000,100000,100000,100000,10000,10000,10000,10000,100000,100000,100000,100000,100000,20000,20000,20000,20000,20000,20000,20000,20000,20000,10000,100000,10000,10000,10000,10000,10000,100000,100000,50000,50000,50000,10000,10000,10000,20000,20000,10000,20000,20000,20000,10000,10000,20000,20000,50000,20000,20000,1000,1000,1000,20000,50000,10000,10000,20000,20000,20000,20000,20000,20000,5000,10000,10000,10000,10000,10000,10000,10000,10000,10000,10000,100000,100000,20000,20000,20000,20000,20000,20000,20000,20000,20000,20000,20000,20000,10000,10000,10000,10000,10000,10000,20000,20000,100000,100000,100000,100000,100000,100000,100000,100000,10000,10000,100000,10000,10000,10000,10000,10000,100000,100000,50000,50000,50000,10000,10000,10000,10000,5000,5000,5000,20000,10000,10000,10000,10000,20000,10000,10000,10000,10000,100000,20000,20000,10000,10000,10000,20000,20000,100000,100000,100000,100000,100000,10000,10000,10000,20000,20000,20000,20000,20000,20000,20000,20000,100000,100000,20000,20000,100000,100000,100000,10000,20000,20000,20000,20000,20000,10000,10000,10000,100000,100000,100000,10000,10000,10000,10000,10000,100000,100000,100000,100000,100000,100000,100000,100000,20000,20000,20000,10000,100000,100000,100000,100000,10000,10000,20000,20000,50000,50000,20000,100000,20000,20000,20000,20000,20000,100000,100000,100000,100000,10000,10000,10000,10000,100000,100000,100000,100000,100000,20000,20000,20000,20000,20000,20000,20000,20000,20000,10000,100000,10000,10000,10000,10000,10000,100000,100000,50000,50000,50000,10000,10000,10000,20000,20000,10000,20000,20000,20000,10000,10000,20000,20000,50000,20000,20000,1000,1000,1000,20000,50000,10000,10000,20000,20000,20000,20000,20000,20000,5000];

assignmentToClusters = [1,2,3,4,5,6,7,8,9,10,3,11,10,12,13,14,15,16,17,3,18,19,20,21,22,23,24,25,4,26,27,28,29,30,31,32,33,3,34,35,3,36,4,13,37,38,39,16,40,40,41,42,26,43,10,4,44,45,37,46,47,48,10,49,50,51,52,53,26,54,55,56,36,36,10,57,58,10,59,15,16,60,61,16,62,63,10,3,64,65,66,26,21,67,68,69,70,71,72,73,74,75,76,77,78,79,80,81,82,83,84,85,86,87,88,89,90,91,92,93,94,95,96,97,98,99,100,101,102,103,104,105,106,107,108,109,110,111,112,113,114,115,116,117,118,119,120,121,122,123,124,125,126,127,128,129,130,131,132,133,134,135,136,137,138,139,140,141,142,143,144,145,146,147,148,149,150,151,152,153,154,155,156,157,158,159,160,161,162,163,164,165,166,167,168,169,170,171,172,173,174,175,176,177,178,179,180,181,182,183,184,185,186,187,188,189,190,191,192,193,194,195,196,197,198,199,200,201,202,203,204,205,206,207,208,209,210,211,212,213,214,215,216,217,218,219,220,221,222,223,224,225,226,227,228,229,230,231,232,233,234,235,236,237,238,239,240,241,242,3,3,3,3,3,3,3,3,3,3,4,4,10,10,10,10,10,10,10,10,13,13,15,15,16,16,16,16,16,16,21,21,26,26,26,26,36,36,36,36,37,37,74,75,76,77,78,79,80,81,82,83,84,85,86,87,88,89,90,91,92,93,94,95,96,97,98,99,100,101,102,103,104,105,106,107,108,109,110,111,112,113,114,115,116,117,118,119,120,121,122,123,124,125,126,127,128,129,130,131,132,133,134,135,136,137,138,139,140,141,142,143,144,145,146,147,148,149,150,151,152,153,154,155,156,157,158,159,160,161,162,163,164,165,166,167,168,169,170,171,172,173,174,175,176,177,178,179,180,181,182,183,184,185,186,187,188,189,190,191,192,193,194,195,196,197,198,199,200,201,202,203,204,205,206,207,208,209,210,211,212,213,214,215,216,217,218,219,220,221,222,223,224,225,226,227,228,229,230,231,232,233,234,235,236,237,238,239,240,241,242];

precedenceAdjList = [[],[],[270],[],[],[],[],[],[],[282],[],[],[284],[],[],[],[292],[294],[],[274],[],[],[],[],[],[],[],[],[42,3],[68],[],[],[],[],[],[],[],[272],[],[],[278],[],[],[290],[],[],[],[298],[],[48],[],[],[],[],[12],[280],[],[],[310],[],[],[],[288],[],[],[],[],[],[302],[],[],[],[308],[306],[],[],[],[],[],[],[],[],[],[296],[],[],[9,286],[276],[],[],[],[304],[300],[],[],[],[],[],[],[],[],[],[],[],[],[],[],[],[],[],[],[],[],[],[],[],[],[],[],[],[],[],[],[],[],[],[],[],[],[],[],[],[],[],[],[],[],[],[],[],[],[],[],[],[],[],[],[],[],[],[],[],[],[],[],[],[],[],[],[],[],[],[],[],[],[],[],[],[],[],[],[],[],[],[],[],[],[],[],[],[],[],[],[],[],[],[],[],[],[],[],[],[],[],[],[],[],[],[],[],[],[],[],[],[],[],[],[],[],[],[],[],[],[],[],[],[],[],[],[],[],[],[],[],[],[],[],[],[],[],[],[],[],[],[],[],[],[],[],[],[],[],[],[],[],[],[],[],[],[],[],[],[],[],[],[],[],[],[],[],[],[],[],[],[],[],[],[],[],[10],[269],[2],[271],[37],[273],[19],[275],[37],[277],[28],[279],[12],[281],[77],[283],[62],[285],[74],[287],[14],[289],[79],[291],[80],[293],[17],[295],[83],[297],[23],[299],[52],[301],[29],[303],[41],[305],[73],[307],[44],[309],[100],[101],[102],[103],[104],[105],[106],[107],[108],[109],[110],[111],[112],[113],[114],[115],[116],[117],[118],[119],[120],[121],[122],[123],[124],[125],[126],[127],[128],[129],[130],[131],[132],[133],[134],[135],[136],[137],[138],[139],[140],[141],[142],[143],[144],[145],[146],[147],[148],[149],[150],[151],[152],[153],[154],[155],[156],[157],[158],[159],[160],[161],[162],[163],[164],[165],[166],[167],[168],[169],[170],[171],[172],[173],[174],[175],[176],[177],[178],[179],[180],[181],[182],[183],[184],[185],[186],[187],[188],[189],[190],[191],[192],[193],[194],[195],[196],[197],[198],[199],[200],[201],[202],[203],[204],[205],[206],[207],[208],[209],[210],[211],[212],[213],[214],[215],[216],[217],[218],[219],[220],[221],[222],[223],[224],[225],[226],[227],[228],[229],[230],[231],[232],[233],[234],[235],[236],[237],[238],[239],[240],[241],[242],[243],[244],[245],[246],[247],[248],[249],[250],[251],[252],[253],[254],[255],[256],[257],[258],[259],[260],[261],[262],[263],[264],[265],[266],[267],[268]];